\ENCODING=ISO-8859-1
\Problem name: ../EQLPSolver/HiGHS-1-2-1/smallTests/codbt021.mps

Minimize
 OBJ: x0 + x1 + x2 + x3 + x4 + x5 + x6 + x7 + x8
Subject To
 R0:   x0 + x1 + x2 + x3 + x6 >= 1
 R1:   x0 + x1 + x2 + x4 + x7 >= 1
 R2:   x0 + x1 + x2 + x5 + x8 >= 1
 R3:   x0 + x3 + x4 + x5 + x6 >= 1
 R4:   x1 + x3 + x4 + x5 + x7 >= 1
 R5:   x2 + x3 + x4 + x5 + x8 >= 1
 R6:   x0 + x3 + x6 + x7 + x8 >= 1
 R7:   x1 + x4 + x6 + x7 + x8 >= 1
 R8:   x2 + x5 + x6 + x7 + x8 >= 1
 C18:  4 x0 + 4 x1 + 4 x2 + 4 x3 + 4 x4 + 4 x5 + 4 x6 + 4 x7 + 4 x8 >= 8
 C19:  2 x0 + 3 x1 + 3 x2 + 3 x3 + 3 x4 + 3 x5 + 3 x6 + 3 x7 + 3 x8 >= 6
 C20:  3 x0 + 3 x1 + 3 x2 + 3 x3 + 2 x4 + 3 x5 + 3 x6 + 3 x7 + 3 x8 >= 6
 C21:  3 x0 + 3 x1 + 3 x2 + 3 x3 + 3 x4 + 2 x5 + 3 x6 + 3 x7 + 3 x8 >= 6
 C22:  3 x0 + 3 x1 + 3 x2 + 3 x3 + 3 x4 + 3 x5 + 2 x6 + 3 x7 + 3 x8 >= 6
 C23:  3 x0 + 3 x1 + 2 x2 + 3 x3 + 3 x4 + 3 x5 + 3 x6 + 3 x7 + 3 x8 >= 6
 C24:  3 x0 + 3 x1 + 3 x2 + 3 x3 + 3 x4 + 3 x5 + 3 x6 + 2 x7 + 3 x8 >= 6
 C25:  3 x0 + 2 x1 + 3 x2 + 3 x3 + 3 x4 + 3 x5 + 3 x6 + 3 x7 + 3 x8 >= 6
 C26:  3 x0 + 3 x1 + 3 x2 + 3 x3 + 3 x4 + 3 x5 + 3 x6 + 3 x7 + 2 x8 >= 6
 C27:  3 x0 + 3 x1 + 3 x2 + 2 x3 + 3 x4 + 3 x5 + 3 x6 + 3 x7 + 3 x8 >= 6
 C28:  3 x0 + 4 x1 + 4 x2 + 4 x3 + 4 x4 + 4 x5 + 4 x6 + 4 x7 + 4 x8 >= 8
 C29:  4 x0 + 4 x1 + 4 x2 + 4 x3 + 3 x4 + 4 x5 + 4 x6 + 4 x7 + 4 x8 >= 8
 C30:  4 x0 + 4 x1 + 4 x2 + 4 x3 + 4 x4 + 3 x5 + 4 x6 + 4 x7 + 4 x8 >= 8
 C31:  4 x0 + 4 x1 + 4 x2 + 4 x3 + 4 x4 + 4 x5 + 3 x6 + 4 x7 + 4 x8 >= 8
 C32:  4 x0 + 4 x1 + 3 x2 + 4 x3 + 4 x4 + 4 x5 + 4 x6 + 4 x7 + 4 x8 >= 8
 C33:  4 x0 + 4 x1 + 4 x2 + 4 x3 + 4 x4 + 4 x5 + 4 x6 + 3 x7 + 4 x8 >= 8
 C34:  4 x0 + 3 x1 + 4 x2 + 4 x3 + 4 x4 + 4 x5 + 4 x6 + 4 x7 + 4 x8 >= 8
 C35:  4 x0 + 4 x1 + 4 x2 + 4 x3 + 4 x4 + 4 x5 + 4 x6 + 4 x7 + 3 x8 >= 8
 C36:  4 x0 + 4 x1 + 4 x2 + 3 x3 + 4 x4 + 4 x5 + 4 x6 + 4 x7 + 4 x8 >= 8
 C37:  23 x0 + 23 x1 + 23 x2 + 23 x3 + 23 x4 + 23 x5 + 23 x6 + 23 x7 + 23 x8
       >= 48
 C38:  14 x0 + 14 x1 + 14 x2 + 14 x3 + 14 x4 + 14 x5 + 14 x6 + 14 x7 + 14 x8
       >= 30
 C39:  18 x0 + 18 x1 + 18 x2 + 18 x3 + 18 x4 + 18 x5 + 18 x6 + 18 x7 + 18 x8
       >= 38
 C40:  11 x0 + 11 x1 + 11 x2 + 11 x3 + 11 x4 + 11 x5 + 11 x6 + 11 x7 + 11 x8
       >= 23
 C41:  22 x0 + 22 x1 + 22 x2 + 22 x3 + 22 x4 + 22 x5 + 22 x6 + 22 x7 + 22 x8
       >= 46
 C42:  25 x0 + 25 x1 + 25 x2 + 25 x3 + 25 x4 + 25 x5 + 25 x6 + 25 x7 + 25 x8
       >= 52
 C43:  11 x0 + 11 x1 + 11 x2 + 11 x3 + 12 x4 + 12 x5 + 11 x6 + 12 x7 + 12 x8
       >= 24
 C44:  12 x0 + 11 x1 + 12 x2 + 11 x3 + 11 x4 + 11 x5 + 12 x6 + 11 x7 + 12 x8
       >= 24
 C45:  12 x0 + 12 x1 + 11 x2 + 11 x3 + 11 x4 + 11 x5 + 12 x6 + 12 x7 + 11 x8
       >= 24
 C46:  11 x0 + 12 x1 + 12 x2 + 11 x3 + 12 x4 + 12 x5 + 11 x6 + 11 x7 + 11 x8
       >= 24
 C47:  11 x0 + 11 x1 + 11 x2 + 12 x3 + 12 x4 + 11 x5 + 12 x6 + 12 x7 + 11 x8
       >= 24
 C48:  12 x0 + 11 x1 + 12 x2 + 12 x3 + 11 x4 + 12 x5 + 11 x6 + 11 x7 + 11 x8
       >= 24
 C49:  11 x0 + 11 x1 + 11 x2 + 12 x3 + 11 x4 + 12 x5 + 12 x6 + 11 x7 + 12 x8
       >= 24
 C50:  12 x0 + 12 x1 + 11 x2 + 12 x3 + 12 x4 + 11 x5 + 11 x6 + 11 x7 + 11 x8
       >= 24
 C51:  11 x0 + 12 x1 + 12 x2 + 11 x3 + 11 x4 + 11 x5 + 11 x6 + 12 x7 + 12 x8
       >= 24
 C52:  2 x0 + 2 x1 + 2 x2 + 2 x3 + 2 x4 + 2 x5 + 2 x6 + 2 x7 + 2 x8 >= 5
 C53:  12 x0 + 13 x1 + 13 x2 + 13 x3 + 14 x4 + 14 x5 + 13 x6 + 14 x7 + 14 x8
       >= 28
 C54:  14 x0 + 13 x1 + 14 x2 + 13 x3 + 12 x4 + 13 x5 + 14 x6 + 13 x7 + 14 x8
       >= 28
 C55:  14 x0 + 14 x1 + 13 x2 + 13 x3 + 13 x4 + 12 x5 + 14 x6 + 14 x7 + 13 x8
       >= 28
 C56:  13 x0 + 14 x1 + 14 x2 + 13 x3 + 14 x4 + 14 x5 + 12 x6 + 13 x7 + 13 x8
       >= 28
 C57:  13 x0 + 13 x1 + 12 x2 + 14 x3 + 14 x4 + 13 x5 + 14 x6 + 14 x7 + 13 x8
       >= 28
 C58:  14 x0 + 13 x1 + 14 x2 + 14 x3 + 13 x4 + 14 x5 + 13 x6 + 12 x7 + 13 x8
       >= 28
 C59:  13 x0 + 12 x1 + 13 x2 + 14 x3 + 13 x4 + 14 x5 + 14 x6 + 13 x7 + 14 x8
       >= 28
 C60:  14 x0 + 14 x1 + 13 x2 + 14 x3 + 14 x4 + 13 x5 + 13 x6 + 13 x7 + 12 x8
       >= 28
 C61:  13 x0 + 14 x1 + 14 x2 + 12 x3 + 13 x4 + 13 x5 + 13 x6 + 14 x7 + 14 x8
       >= 28
 C62:  13 x0 + 13 x1 + 13 x2 + 13 x3 + 14 x4 + 14 x5 + 13 x6 + 14 x7 + 14 x8
       >= 29
 C63:  14 x0 + 13 x1 + 14 x2 + 13 x3 + 13 x4 + 13 x5 + 14 x6 + 13 x7 + 14 x8
       >= 29
 C64:  14 x0 + 14 x1 + 13 x2 + 13 x3 + 13 x4 + 13 x5 + 14 x6 + 14 x7 + 13 x8
       >= 29
 C65:  13 x0 + 14 x1 + 14 x2 + 13 x3 + 14 x4 + 14 x5 + 13 x6 + 13 x7 + 13 x8
       >= 29
 C66:  13 x0 + 13 x1 + 13 x2 + 14 x3 + 14 x4 + 13 x5 + 14 x6 + 14 x7 + 13 x8
       >= 29
 C67:  14 x0 + 13 x1 + 14 x2 + 14 x3 + 13 x4 + 14 x5 + 13 x6 + 13 x7 + 13 x8
       >= 29
 C68:  13 x0 + 13 x1 + 13 x2 + 14 x3 + 13 x4 + 14 x5 + 14 x6 + 13 x7 + 14 x8
       >= 29
 C69:  14 x0 + 14 x1 + 13 x2 + 14 x3 + 14 x4 + 13 x5 + 13 x6 + 13 x7 + 13 x8
       >= 29
 C70:  13 x0 + 14 x1 + 14 x2 + 13 x3 + 13 x4 + 13 x5 + 13 x6 + 14 x7 + 14 x8
       >= 29
 C71:  8 x0 + 9 x1 + 9 x2 + 9 x3 + 10 x4 + 10 x5 + 9 x6 + 10 x7 + 10 x8 >= 20
 C72:  10 x0 + 9 x1 + 10 x2 + 9 x3 + 8 x4 + 9 x5 + 10 x6 + 9 x7 + 10 x8 >= 20
 C73:  10 x0 + 10 x1 + 9 x2 + 9 x3 + 9 x4 + 8 x5 + 10 x6 + 10 x7 + 9 x8 >= 20
 C74:  9 x0 + 10 x1 + 10 x2 + 9 x3 + 10 x4 + 10 x5 + 8 x6 + 9 x7 + 9 x8 >= 20
 C75:  9 x0 + 9 x1 + 8 x2 + 10 x3 + 10 x4 + 9 x5 + 10 x6 + 10 x7 + 9 x8 >= 20
 C76:  10 x0 + 9 x1 + 10 x2 + 10 x3 + 9 x4 + 10 x5 + 9 x6 + 8 x7 + 9 x8 >= 20
 C77:  9 x0 + 8 x1 + 9 x2 + 10 x3 + 9 x4 + 10 x5 + 10 x6 + 9 x7 + 10 x8 >= 20
 C78:  10 x0 + 10 x1 + 9 x2 + 10 x3 + 10 x4 + 9 x5 + 9 x6 + 9 x7 + 8 x8 >= 20
 C79:  9 x0 + 10 x1 + 10 x2 + 8 x3 + 9 x4 + 9 x5 + 9 x6 + 10 x7 + 10 x8 >= 20
 C80:  10 x0 + 10 x1 + 10 x2 + 10 x3 + 10 x4 + 10 x5 + 10 x6 + 10 x7 + 10 x8
       >= 22
 C81:  11 x0 + 12 x1 + 12 x2 + 12 x3 + 13 x4 + 13 x5 + 12 x6 + 13 x7 + 13 x8
       >= 26
 C82:  13 x0 + 12 x1 + 13 x2 + 12 x3 + 11 x4 + 12 x5 + 13 x6 + 12 x7 + 13 x8
       >= 26
 C83:  13 x0 + 13 x1 + 12 x2 + 12 x3 + 12 x4 + 11 x5 + 13 x6 + 13 x7 + 12 x8
       >= 26
 C84:  12 x0 + 13 x1 + 13 x2 + 12 x3 + 13 x4 + 13 x5 + 11 x6 + 12 x7 + 12 x8
       >= 26
 C85:  12 x0 + 12 x1 + 11 x2 + 13 x3 + 13 x4 + 12 x5 + 13 x6 + 13 x7 + 12 x8
       >= 26
 C86:  13 x0 + 12 x1 + 13 x2 + 13 x3 + 12 x4 + 13 x5 + 12 x6 + 11 x7 + 12 x8
       >= 26
 C87:  12 x0 + 11 x1 + 12 x2 + 13 x3 + 12 x4 + 13 x5 + 13 x6 + 12 x7 + 13 x8
       >= 26
 C88:  13 x0 + 13 x1 + 12 x2 + 13 x3 + 13 x4 + 12 x5 + 12 x6 + 12 x7 + 11 x8
       >= 26
 C89:  12 x0 + 13 x1 + 13 x2 + 11 x3 + 12 x4 + 12 x5 + 12 x6 + 13 x7 + 13 x8
       >= 26
 C90:  12 x0 + 12 x1 + 12 x2 + 12 x3 + 13 x4 + 13 x5 + 12 x6 + 13 x7 + 13 x8
       >= 26
 C91:  13 x0 + 12 x1 + 13 x2 + 12 x3 + 12 x4 + 12 x5 + 13 x6 + 12 x7 + 13 x8
       >= 26
 C92:  13 x0 + 13 x1 + 12 x2 + 12 x3 + 12 x4 + 12 x5 + 13 x6 + 13 x7 + 12 x8
       >= 26
 C93:  12 x0 + 13 x1 + 13 x2 + 12 x3 + 13 x4 + 13 x5 + 12 x6 + 12 x7 + 12 x8
       >= 26
 C94:  12 x0 + 12 x1 + 12 x2 + 13 x3 + 13 x4 + 12 x5 + 13 x6 + 13 x7 + 12 x8
       >= 26
 C95:  13 x0 + 12 x1 + 13 x2 + 13 x3 + 12 x4 + 13 x5 + 12 x6 + 12 x7 + 12 x8
       >= 26
 C96:  12 x0 + 12 x1 + 12 x2 + 13 x3 + 12 x4 + 13 x5 + 13 x6 + 12 x7 + 13 x8
       >= 26
 C97:  13 x0 + 13 x1 + 12 x2 + 13 x3 + 13 x4 + 12 x5 + 12 x6 + 12 x7 + 12 x8
       >= 26
 C98:  12 x0 + 13 x1 + 13 x2 + 12 x3 + 12 x4 + 12 x5 + 12 x6 + 13 x7 + 13 x8
       >= 26
 C99:  5 x0 + 5 x1 + 5 x2 + 5 x3 + 5 x4 + 5 x5 + 5 x6 + 5 x7 + 5 x8 >= 11
 C100: 16 x0 + 16 x1 + 16 x2 + 16 x3 + 17 x4 + 17 x5 + 16 x6 + 17 x7 + 17 x8
       >= 35
 C101: 17 x0 + 16 x1 + 17 x2 + 16 x3 + 16 x4 + 16 x5 + 17 x6 + 16 x7 + 17 x8
       >= 35
 C102: 17 x0 + 17 x1 + 16 x2 + 16 x3 + 16 x4 + 16 x5 + 17 x6 + 17 x7 + 16 x8
       >= 35
 C103: 16 x0 + 17 x1 + 17 x2 + 16 x3 + 17 x4 + 17 x5 + 16 x6 + 16 x7 + 16 x8
       >= 35
 C104: 16 x0 + 16 x1 + 16 x2 + 17 x3 + 17 x4 + 16 x5 + 17 x6 + 17 x7 + 16 x8
       >= 35
 C105: 17 x0 + 16 x1 + 17 x2 + 17 x3 + 16 x4 + 17 x5 + 16 x6 + 16 x7 + 16 x8
       >= 35
 C106: 16 x0 + 16 x1 + 16 x2 + 17 x3 + 16 x4 + 17 x5 + 17 x6 + 16 x7 + 17 x8
       >= 35
 C107: 17 x0 + 17 x1 + 16 x2 + 17 x3 + 17 x4 + 16 x5 + 16 x6 + 16 x7 + 16 x8
       >= 35
 C108: 16 x0 + 17 x1 + 17 x2 + 16 x3 + 16 x4 + 16 x5 + 16 x6 + 17 x7 + 17 x8
       >= 35
 C109: 3 x0 + 3 x1 + 3 x2 + 3 x3 + 3 x4 + 3 x5 + 3 x6 + 3 x7 + 3 x8 >= 7
 C110: 6 x0 + 6 x1 + 6 x2 + 6 x3 + 6 x4 + 6 x5 + 6 x6 + 6 x7 + 6 x8 >= 13
 C111: x0 + 2 x1 + 2 x2 + 2 x3 + 3 x4 + 3 x5 + 2 x6 + 3 x7 + 3 x8 >= 5
 C112: 3 x0 + 2 x1 + 3 x2 + 2 x3 + x4 + 2 x5 + 3 x6 + 2 x7 + 3 x8 >= 5
 C113: 3 x0 + 3 x1 + 2 x2 + 2 x3 + 2 x4 + x5 + 3 x6 + 3 x7 + 2 x8 >= 5
 C114: 2 x0 + 3 x1 + 3 x2 + 2 x3 + 3 x4 + 3 x5 + x6 + 2 x7 + 2 x8 >= 5
 C115: 2 x0 + 2 x1 + x2 + 3 x3 + 3 x4 + 2 x5 + 3 x6 + 3 x7 + 2 x8 >= 5
 C116: 3 x0 + 2 x1 + 3 x2 + 3 x3 + 2 x4 + 3 x5 + 2 x6 + x7 + 2 x8 >= 5
 C117: 2 x0 + x1 + 2 x2 + 3 x3 + 2 x4 + 3 x5 + 3 x6 + 2 x7 + 3 x8 >= 5
 C118: 3 x0 + 3 x1 + 2 x2 + 3 x3 + 3 x4 + 2 x5 + 2 x6 + 2 x7 + x8 >= 5
 C119: 2 x0 + 3 x1 + 3 x2 + x3 + 2 x4 + 2 x5 + 2 x6 + 3 x7 + 3 x8 >= 5
 C120: x0 + x1 + x2 + x3 + x4 + x5 + x6 + x7 + x8 >= 3
Bounds
 0 <= x0 <= 1
 0 <= x1 <= 1
 0 <= x2 <= 1
 0 <= x3 <= 1
 0 <= x4 <= 1
 0 <= x5 <= 1
 0 <= x6 <= 1
 0 <= x7 <= 1
 0 <= x8 <= 1
End
